p wcnf 120 1500
6 -117 -120 0
3 -113 -117 0
10 -113 114 0
5 -105 112 0
1 -104 -119 0
8 -103 -105 0
9 -103 105 0
5 -102 106 0
10 -102 109 0
10 -102 117 0
7 -101 -114 0
1 -101 -104 0
9 -100 -120 0
5 -100 -114 0
7 -100 117 0
2 -99 -117 0
2 -98 -108 0
5 -98 113 0
4 -98 115 0
4 -96 -114 0
7 -94 -102 0
6 -93 113 0
8 -93 120 0
3 -92 -113 0
5 -92 -106 0
5 -92 -99 0
7 -92 -96 0
7 -92 96 0
3 -91 -113 0
2 -91 108 0
6 -90 -115 0
7 -90 92 0
4 -89 -117 0
6 -89 99 0
2 -88 -114 0
4 -87 -103 0
3 -86 -119 0
1 -86 -109 0
8 -86 -94 0
3 -85 -107 0
10 -85 -100 0
5 -85 86 0
3 -84 -99 0
9 -84 92 0
9 -84 99 0
9 -83 -98 0
1 -83 92 0
1 -83 99 0
4 -83 104 0
4 -82 -94 0
5 -82 103 0
10 -81 -98 0
9 -81 90 0
2 -81 95 0
3 -81 99 0
5 -81 101 0
6 -80 -95 0
9 -80 83 0
1 -80 84 0
8 -80 89 0
1 -80 107 0
6 -80 109 0
5 -80 112 0
5 -79 -90 0
2 -79 -86 0
6 -79 117 0
8 -78 -103 0
4 -78 -84 0
6 -78 87 0
6 -78 108 0
6 -77 -111 0
6 -77 -105 0
1 -77 90 0
8 -76 -117 0
6 -76 -115 0
9 -76 -90 0
7 -76 -81 0
6 -76 110 0
10 -75 -118 0
10 -75 -114 0
8 -75 -100 0
4 -75 79 0
10 -75 96 0
7 -74 -90 0
6 -74 89 0
3 -74 94 0
2 -74 102 0
1 -73 -76 0
2 -73 92 0
2 -72 -87 0
8 -72 -86 0
3 -72 -82 0
7 -72 -77 0
3 -72 78 0
6 -72 85 0
8 -72 96 0
8 -72 104 0
4 -71 -113 0
2 -71 -108 0
4 -71 -87 0
9 -71 114 0
7 -70 80 0
10 -70 102 0
9 -69 -113 0
5 -69 -90 0
5 -69 75 0
9 -69 90 0
2 -69 113 0
10 -68 -101 0
8 -68 -81 0
2 -68 94 0
8 -67 -112 0
3 -67 -108 0
2 -67 -107 0
5 -67 75 0
7 -66 -106 0
4 -66 -79 0
7 -66 111 0
8 -65 -112 0
5 -65 -108 0
8 -65 -104 0
6 -65 94 0
7 -64 -83 0
5 -64 -76 0
8 -64 65 0
3 -64 69 0
3 -64 93 0
6 -64 108 0
6 -64 115 0
4 -63 -120 0
10 -63 -117 0
5 -63 -75 0
10 -63 72 0
9 -63 81 0
4 -63 106 0
5 -63 109 0
4 -62 67 0
3 -62 71 0
6 -62 75 0
4 -62 85 0
1 -62 104 0
7 -61 -112 0
2 -61 -111 0
3 -61 -106 0
8 -61 -101 0
7 -61 -82 0
9 -61 69 0
2 -61 70 0
3 -61 73 0
7 -61 77 0
6 -61 81 0
10 -61 88 0
2 -61 105 0
3 -60 -99 0
5 -60 74 0
9 -59 -112 0
5 -59 -72 0
7 -59 109 0
5 -59 110 0
1 -59 112 0
1 -58 -76 0
5 -58 -69 0
5 -58 -60 0
10 -58 67 0
4 -58 68 0
8 -58 71 0
4 -58 74 0
8 -58 103 0
1 -58 114 0
9 -58 118 0
2 -57 -120 0
2 -57 -119 0
6 -57 -115 0
3 -57 -107 0
4 -57 -66 0
4 -57 -60 0
8 -57 82 0
3 -56 -115 0
5 -56 -99 0
2 -56 -98 0
8 -56 69 0
1 -56 81 0
2 -56 109 0
10 -55 -81 0
3 -55 -67 0
6 -55 -65 0
9 -55 -63 0
8 -55 72 0
3 -55 99 0
4 -55 105 0
8 -55 112 0
3 -54 -117 0
8 -54 -93 0
3 -54 65 0
3 -54 98 0
2 -54 105 0
1 -54 109 0
7 -54 110 0
9 -53 -96 0
2 -53 -93 0
6 -53 -91 0
10 -53 -75 0
2 -53 -67 0
2 -53 -54 0
3 -53 64 0
5 -52 -118 0
5 -52 -116 0
1 -52 -109 0
7 -52 -96 0
9 -52 -78 0
2 -52 -73 0
5 -52 -64 0
9 -52 -57 0
2 -52 69 0
4 -52 72 0
3 -52 93 0
7 -52 119 0
3 -51 -117 0
9 -51 -114 0
9 -51 89 0
6 -51 102 0
7 -51 115 0
3 -51 118 0
5 -50 -77 0
9 -50 -76 0
5 -50 -70 0
6 -50 -60 0
9 -50 -54 0
2 -50 109 0
5 -50 114 0
1 -49 -114 0
6 -49 -97 0
5 -49 -96 0
2 -49 -74 0
7 -49 60 0
6 -49 78 0
6 -49 79 0
2 -49 85 0
6 -49 98 0
3 -48 -119 0
10 -48 -115 0
7 -48 -114 0
7 -48 -71 0
9 -48 -56 0
8 -47 -89 0
1 -47 -88 0
2 -47 -87 0
5 -47 -86 0
3 -47 -85 0
10 -47 -70 0
4 -47 66 0
9 -47 71 0
7 -46 -101 0
5 -46 -99 0
3 -46 -95 0
6 -46 -56 0
9 -46 -53 0
8 -46 -47 0
5 -46 92 0
10 -46 113 0
3 -45 -109 0
5 -45 -103 0
6 -45 -100 0
7 -45 -74 0
6 -45 79 0
4 -45 86 0
3 -45 101 0
3 -45 117 0
5 -44 -97 0
8 -44 -89 0
5 -44 -66 0
5 -44 84 0
5 -44 100 0
1 -44 115 0
4 -44 117 0
3 -43 -100 0
2 -43 -91 0
5 -43 -63 0
7 -43 56 0
4 -42 -105 0
4 -42 -63 0
10 -42 105 0
3 -42 106 0
1 -42 107 0
5 -41 -90 0
5 -41 -50 0
6 -41 47 0
4 -41 56 0
4 -41 75 0
10 -41 83 0
4 -41 103 0
6 -40 -119 0
5 -40 -113 0
10 -40 -88 0
3 -40 -86 0
10 -40 -52 0
4 -40 58 0
5 -40 71 0
3 -40 81 0
8 -40 89 0
3 -40 102 0
6 -40 105 0
2 -39 -119 0
7 -39 -118 0
7 -39 -107 0
5 -39 -102 0
8 -39 -81 0
7 -39 -52 0
9 -39 50 0
5 -39 67 0
2 -39 85 0
4 -39 91 0
5 -38 -107 0
4 -38 -99 0
4 -38 -95 0
9 -38 -94 0
8 -38 -82 0
9 -38 -69 0
3 -38 -52 0
2 -38 47 0
9 -38 48 0
6 -38 55 0
7 -38 70 0
3 -38 91 0
6 -38 99 0
9 -38 106 0
3 -38 118 0
9 -37 -100 0
4 -37 -80 0
5 -37 -55 0
6 -37 -38 0
5 -37 60 0
10 -37 61 0
8 -37 101 0
2 -36 -104 0
7 -36 -100 0
3 -36 -77 0
9 -36 63 0
4 -36 116 0
3 -35 -116 0
5 -35 -61 0
5 -35 -58 0
5 -35 -44 0
8 -35 -40 0
7 -35 63 0
8 -35 65 0
7 -35 70 0
5 -35 73 0
7 -35 94 0
9 -35 100 0
6 -34 -111 0
5 -34 -107 0
5 -34 -87 0
3 -34 -80 0
7 -34 -67 0
2 -34 -66 0
2 -34 -39 0
9 -34 63 0
10 -34 64 0
5 -34 74 0
4 -34 97 0
6 -34 103 0
9 -34 118 0
4 -33 -97 0
4 -33 -67 0
10 -33 -52 0
10 -33 -39 0
6 -33 -38 0
9 -33 82 0
4 -32 -118 0
8 -32 -115 0
4 -32 -109 0
8 -32 -45 0
3 -32 -41 0
2 -32 -35 0
5 -32 45 0
10 -32 54 0
8 -32 62 0
9 -32 79 0
7 -32 115 0
7 -32 120 0
6 -31 -83 0
2 -31 -36 0
2 -31 38 0
8 -31 39 0
8 -31 77 0
3 -31 79 0
9 -31 105 0
8 -31 118 0
3 -30 -120 0
4 -30 -117 0
2 -30 -103 0
8 -30 -83 0
2 -30 -51 0
5 -30 -46 0
2 -30 33 0
2 -30 63 0
5 -30 87 0
7 -30 110 0
2 -29 -120 0
8 -29 -119 0
5 -29 -108 0
4 -29 -106 0
6 -29 40 0
7 -29 50 0
5 -29 59 0
10 -29 102 0
7 -29 115 0
3 -28 -106 0
9 -28 -104 0
3 -28 -99 0
9 -28 -86 0
5 -28 -81 0
4 -28 -71 0
2 -28 -65 0
3 -28 -50 0
2 -28 -47 0
4 -28 30 0
2 -28 45 0
9 -28 53 0
6 -28 63 0
4 -28 91 0
10 -27 -83 0
3 -27 -59 0
6 -27 -52 0
5 -27 91 0
4 -27 98 0
7 -27 101 0
9 -27 102 0
10 -27 111 0
8 -26 -95 0
6 -26 -83 0
5 -26 -76 0
2 -26 -63 0
2 -26 -61 0
2 -26 -37 0
7 -26 60 0
2 -26 74 0
7 -26 79 0
9 -26 107 0
10 -25 -114 0
10 -25 -102 0
9 -25 -89 0
5 -25 -80 0
4 -25 -70 0
9 -25 -64 0
6 -25 -63 0
5 -25 -53 0
3 -25 -36 0
7 -25 -32 0
4 -25 -30 0
8 -25 32 0
2 -25 63 0
4 -25 65 0
1 -25 68 0
7 -25 71 0
7 -25 86 0
4 -25 95 0
4 -25 116 0
6 -24 -97 0
4 -24 -90 0
2 -24 -87 0
2 -24 -85 0
8 -24 -71 0
3 -24 -69 0
3 -24 -60 0
8 -24 -38 0
9 -24 81 0
4 -24 86 0
6 -24 99 0
8 -24 101 0
4 -23 -119 0
6 -23 -109 0
7 -23 -90 0
7 -23 -84 0
8 -23 -46 0
6 -23 -43 0
4 -23 72 0
3 -23 81 0
8 -23 82 0
10 -23 97 0
6 -22 -98 0
6 -22 -79 0
2 -22 -71 0
9 -22 -51 0
6 -22 25 0
7 -22 64 0
7 -22 66 0
9 -22 67 0
1 -22 93 0
2 -22 106 0
3 -21 -98 0
2 -21 -79 0
4 -21 -33 0
1 -21 27 0
4 -21 52 0
6 -21 82 0
9 -20 -94 0
3 -20 -90 0
9 -20 -56 0
5 -20 25 0
10 -20 37 0
3 -20 60 0
9 -20 64 0
7 -20 67 0
9 -19 -113 0
8 -19 -105 0
3 -19 -82 0
3 -19 -57 0
1 -19 -54 0
1 -19 -53 0
3 -19 26 0
7 -19 30 0
6 -19 53 0
4 -19 111 0
6 -18 -110 0
3 -18 -97 0
10 -18 -68 0
2 -18 -61 0
2 -18 -47 0
10 -18 -33 0
4 -18 -32 0
5 -18 -25 0
2 -17 -84 0
6 -17 -72 0
5 -17 -69 0
4 -17 -65 0
2 -17 -58 0
4 -17 -50 0
6 -17 43 0
2 -17 48 0
7 -17 72 0
6 -17 78 0
4 -17 80 0
7 -17 85 0
3 -17 94 0
3 -17 101 0
4 -17 120 0
4 -16 -119 0
5 -16 -86 0
4 -16 -55 0
4 -16 -44 0
7 -16 -39 0
1 -16 -34 0
10 -16 -33 0
1 -16 -26 0
6 -16 -24 0
2 -16 -21 0
10 -16 -19 0
7 -16 61 0
3 -15 -107 0
10 -15 -100 0
10 -15 -69 0
7 -15 -68 0
1 -15 -60 0
6 -15 -51 0
2 -15 -42 0
5 -15 -40 0
8 -15 34 0
5 -15 37 0
1 -15 62 0
8 -15 109 0
2 -14 -95 0
6 -14 -50 0
2 -14 19 0
8 -14 41 0
8 -14 45 0
4 -14 52 0
2 -14 65 0
2 -14 79 0
8 -14 110 0
6 -14 114 0
5 -13 -89 0
5 -13 -68 0
6 -13 -50 0
5 -13 -26 0
5 -13 34 0
2 -13 37 0
6 -13 39 0
5 -13 80 0
8 -13 83 0
9 -13 116 0
5 -12 -107 0
7 -12 -106 0
6 -12 -95 0
5 -12 -87 0
3 -12 -77 0
6 -12 -66 0
9 -12 62 0
1 -12 79 0
1 -12 101 0
9 -12 110 0
8 -11 -112 0
2 -11 -74 0
6 -11 -72 0
9 -11 -69 0
9 -11 -54 0
3 -11 -52 0
3 -11 -47 0
1 -11 -37 0
4 -11 -13 0
1 -11 25 0
6 -11 40 0
9 -11 57 0
6 -11 60 0
2 -11 71 0
4 -11 85 0
1 -11 112 0
3 -10 -119 0
9 -10 -118 0
5 -10 -112 0
9 -10 -111 0
7 -10 -109 0
9 -10 -100 0
7 -10 -96 0
3 -10 -90 0
5 -10 -56 0
9 -10 -54 0
8 -10 -48 0
4 -10 16 0
9 -10 53 0
8 -10 114 0
3 -9 -84 0
7 -9 -82 0
10 -9 -72 0
8 -9 20 0
6 -9 28 0
9 -9 31 0
1 -9 44 0
9 -9 46 0
9 -9 55 0
5 -9 71 0
9 -9 108 0
6 -8 -118 0
3 -8 -108 0
4 -8 -107 0
7 -8 -96 0
6 -8 -91 0
4 -8 -78 0
8 -8 -74 0
4 -8 -64 0
9 -8 -48 0
8 -8 -26 0
2 -8 -19 0
8 -8 14 0
4 -8 15 0
3 -8 23 0
3 -8 29 0
3 -8 49 0
1 -8 80 0
6 -7 -105 0
2 -7 -73 0
9 -7 -59 0
8 -7 -52 0
9 -7 -47 0
9 -7 -46 0
6 -7 -36 0
5 -7 -34 0
8 -7 -24 0
6 -7 -13 0
3 -7 9 0
7 -7 51 0
10 -7 60 0
2 -7 77 0
3 -7 98 0
3 -7 106 0
5 -6 -96 0
8 -6 -90 0
8 -6 -70 0
9 -6 -68 0
7 -6 -42 0
2 -6 -35 0
7 -6 -19 0
4 -6 26 0
3 -6 33 0
5 -6 50 0
8 -6 106 0
5 -6 109 0
7 -5 -115 0
10 -5 -93 0
5 -5 -87 0
2 -5 -45 0
2 -5 -31 0
4 -5 -29 0
10 -5 -16 0
9 -5 -12 0
3 -5 -8 0
6 -5 14 0
4 -5 18 0
9 -5 23 0
2 -5 42 0
7 -5 48 0
6 -5 55 0
2 -5 78 0
8 -5 80 0
8 -5 85 0
4 -5 88 0
4 -5 102 0
6 -4 -107 0
2 -4 -89 0
2 -4 -59 0
3 -4 -28 0
3 -4 -19 0
8 -4 -9 0
6 -4 -8 0
5 -4 -7 0
3 -4 6 0
4 -4 7 0
9 -4 24 0
9 -4 56 0
3 -4 57 0
4 -4 69 0
2 -3 -110 0
4 -3 -105 0
7 -3 -31 0
1 -3 -17 0
4 -3 -4 0
9 -3 9 0
6 -3 44 0
7 -3 64 0
8 -3 79 0
7 -3 80 0
4 -3 99 0
4 -3 118 0
8 -2 -94 0
2 -2 -74 0
2 -2 -64 0
1 -2 -51 0
5 -2 -24 0
7 -2 -8 0
2 -2 -5 0
6 -2 8 0
9 -2 47 0
4 -2 51 0
4 -2 52 0
5 -2 54 0
8 -2 56 0
7 -2 75 0
8 -1 -116 0
7 -1 -82 0
6 -1 -60 0
1 -1 -53 0
10 -1 -34 0
6 -1 -16 0
5 -1 36 0
7 1 -106 0
7 1 -84 0
7 1 -83 0
6 1 -68 0
2 1 -60 0
5 1 -40 0
4 1 -33 0
8 1 -11 0
8 1 -7 0
8 1 24 0
6 1 27 0
9 1 35 0
9 1 56 0
6 1 58 0
4 1 59 0
6 1 69 0
7 1 108 0
9 1 115 0
6 1 116 0
1 2 -111 0
3 2 -109 0
10 2 -94 0
8 2 -93 0
9 2 -91 0
8 2 -43 0
5 2 -36 0
5 2 -30 0
8 2 5 0
5 2 52 0
1 2 117 0
3 2 118 0
2 3 -116 0
7 3 -114 0
9 3 -110 0
7 3 -83 0
8 3 -63 0
3 3 -43 0
1 3 -40 0
6 3 -24 0
1 3 -17 0
8 3 35 0
2 3 50 0
9 3 95 0
7 4 -118 0
7 4 -90 0
3 4 -86 0
4 4 -81 0
4 4 -44 0
2 4 -21 0
8 4 -17 0
4 4 29 0
4 4 38 0
8 4 44 0
2 4 50 0
3 4 51 0
6 4 63 0
6 4 92 0
6 4 110 0
4 4 117 0
1 5 -91 0
6 5 -51 0
5 5 -47 0
2 5 -41 0
3 5 -35 0
4 5 -23 0
8 5 17 0
1 5 36 0
7 5 64 0
8 5 86 0
6 5 93 0
7 5 118 0
7 6 -119 0
7 6 -114 0
6 6 -56 0
4 6 -25 0
4 6 -23 0
8 6 -22 0
6 6 -15 0
6 6 -10 0
9 6 22 0
4 6 27 0
9 6 50 0
3 6 74 0
2 7 -106 0
2 7 -90 0
4 7 -88 0
7 7 -78 0
7 7 -66 0
10 7 -63 0
10 7 -48 0
7 7 -43 0
6 7 -13 0
5 7 -12 0
8 7 22 0
8 7 27 0
9 8 -118 0
6 8 -86 0
8 8 -78 0
5 8 -56 0
5 8 -48 0
5 8 -43 0
2 8 11 0
1 8 101 0
2 8 116 0
7 9 -117 0
4 9 -78 0
4 9 -76 0
6 9 -70 0
9 9 -50 0
9 9 -49 0
5 9 -44 0
4 9 -36 0
9 9 -16 0
6 9 41 0
5 9 48 0
10 9 54 0
10 9 78 0
2 10 -111 0
7 10 -110 0
9 10 -99 0
2 10 -89 0
4 10 -87 0
5 10 -72 0
6 10 -60 0
2 10 -55 0
4 10 -54 0
5 10 -52 0
8 10 -44 0
2 10 -28 0
9 10 -17 0
3 10 15 0
6 10 22 0
1 10 60 0
3 10 70 0
6 11 -118 0
8 11 -110 0
6 11 -91 0
10 11 -34 0
3 11 -27 0
6 11 12 0
9 11 59 0
7 11 61 0
8 11 89 0
8 11 104 0
3 11 105 0
3 11 106 0
7 11 113 0
3 12 -99 0
4 12 -80 0
4 12 -75 0
2 12 -63 0
5 12 -21 0
7 12 -14 0
6 12 27 0
1 12 53 0
8 13 -64 0
9 13 -48 0
5 13 28 0
6 13 39 0
10 13 97 0
4 13 104 0
8 13 108 0
6 14 -104 0
4 14 -74 0
10 14 -60 0
2 14 -46 0
1 14 -41 0
6 14 -18 0
2 14 -17 0
4 14 34 0
1 14 59 0
10 14 73 0
9 14 75 0
9 14 93 0
8 14 116 0
2 15 -96 0
2 15 -69 0
5 15 -51 0
4 15 -46 0
5 15 -21 0
8 15 -16 0
5 15 53 0
10 15 57 0
5 15 80 0
10 15 84 0
10 15 114 0
4 16 -77 0
9 16 -51 0
4 16 -45 0
9 16 -30 0
8 16 45 0
7 16 72 0
7 16 78 0
4 16 90 0
10 16 118 0
6 17 -118 0
5 17 -117 0
1 17 -115 0
2 17 -83 0
5 17 -69 0
4 17 -60 0
2 17 -37 0
5 17 -35 0
4 17 -29 0
10 17 20 0
3 17 40 0
5 17 51 0
2 17 54 0
7 17 57 0
8 17 75 0
6 18 -98 0
5 18 -56 0
3 18 -49 0
6 18 -46 0
9 18 -40 0
3 18 60 0
5 18 62 0
3 18 72 0
1 18 74 0
9 18 91 0
1 19 -72 0
9 19 -40 0
6 19 -27 0
7 19 -21 0
3 19 20 0
6 19 21 0
3 19 26 0
6 19 33 0
6 19 46 0
4 19 78 0
2 19 82 0
9 19 84 0
5 19 100 0
6 19 107 0
3 19 118 0
5 20 -93 0
7 20 -87 0
7 20 104 0
6 21 -104 0
4 21 -71 0
5 21 73 0
2 21 95 0
8 21 112 0
6 22 -104 0
6 22 -100 0
7 22 -97 0
8 22 -85 0
2 22 -78 0
8 22 -66 0
8 22 41 0
9 22 59 0
9 22 72 0
7 22 84 0
5 22 105 0
6 22 114 0
9 23 -116 0
1 23 -113 0
8 23 -111 0
5 23 -82 0
6 23 -75 0
2 23 -59 0
6 23 35 0
5 23 41 0
6 23 77 0
2 23 90 0
7 23 100 0
1 24 -120 0
8 24 -115 0
4 24 -93 0
6 24 -37 0
2 24 -28 0
7 24 25 0
7 24 90 0
9 24 98 0
4 24 114 0
4 24 115 0
6 24 118 0
2 25 -117 0
4 25 -116 0
4 25 -99 0
9 25 -91 0
4 25 -79 0
2 25 -63 0
6 25 -34 0
8 25 28 0
7 25 29 0
5 25 58 0
8 25 98 0
5 25 109 0
9 26 -87 0
4 26 -42 0
6 26 -27 0
6 26 34 0
9 26 41 0
2 26 48 0
7 26 62 0
6 26 102 0
2 27 -120 0
5 27 -62 0
9 27 -48 0
8 27 29 0
7 27 36 0
6 27 67 0
5 27 69 0
6 27 82 0
9 27 93 0
7 27 95 0
1 27 100 0
9 27 102 0
1 27 113 0
4 27 116 0
9 28 -120 0
4 28 -111 0
5 28 -106 0
5 28 -105 0
2 28 -91 0
2 28 -53 0
9 28 -37 0
9 28 37 0
6 28 46 0
8 28 64 0
3 28 76 0
2 28 85 0
4 28 92 0
2 28 109 0
3 28 119 0
9 29 -101 0
7 29 -96 0
4 29 -83 0
5 29 -70 0
5 29 34 0
2 29 46 0
1 29 48 0
1 29 72 0
5 30 -103 0
6 30 -100 0
9 30 -99 0
3 30 -96 0
6 30 -51 0
8 30 -45 0
3 30 39 0
9 30 49 0
7 30 77 0
6 31 -120 0
4 31 -118 0
2 31 -65 0
7 31 50 0
6 31 69 0
1 31 71 0
6 32 -104 0
2 32 -41 0
9 32 51 0
9 32 53 0
2 32 60 0
2 32 72 0
10 32 77 0
4 32 91 0
2 32 99 0
6 32 111 0
7 33 -82 0
6 33 -65 0
2 33 -64 0
8 33 -57 0
6 33 -45 0
2 33 58 0
3 33 61 0
1 33 62 0
10 33 76 0
5 33 88 0
6 33 89 0
8 33 108 0
7 34 -101 0
5 34 -94 0
5 34 -88 0
3 34 -71 0
8 34 -66 0
6 34 -62 0
10 34 -58 0
4 34 37 0
6 34 48 0
6 34 56 0
5 34 99 0
5 35 -111 0
5 35 -76 0
6 35 -61 0
6 35 -56 0
4 35 -52 0
9 35 -47 0
7 35 -44 0
9 35 39 0
6 35 114 0
3 36 -116 0
1 36 -49 0
3 36 48 0
7 36 90 0
2 36 105 0
5 37 -70 0
8 37 40 0
2 37 50 0
9 37 53 0
4 37 68 0
9 37 75 0
6 37 76 0
8 38 -106 0
4 38 -89 0
8 38 -62 0
6 38 -60 0
9 38 -54 0
8 38 -45 0
10 38 46 0
6 38 80 0
4 38 96 0
4 38 118 0
10 39 -65 0
7 39 45 0
9 40 -63 0
6 40 -52 0
1 40 112 0
8 41 -92 0
3 41 -49 0
10 41 -43 0
4 41 117 0
5 42 -98 0
10 42 -77 0
7 42 -75 0
3 42 -69 0
1 42 -43 0
2 42 52 0
9 42 87 0
2 42 98 0
10 42 107 0
3 42 111 0
10 43 -110 0
6 43 -84 0
1 43 -65 0
4 43 -53 0
4 43 51 0
7 43 55 0
3 43 98 0
1 43 108 0
6 43 112 0
8 44 -70 0
4 44 45 0
9 44 57 0
8 44 67 0
1 44 71 0
9 44 74 0
4 44 75 0
1 44 77 0
7 44 110 0
6 45 -102 0
10 45 -99 0
1 45 -95 0
1 45 -69 0
10 45 -55 0
7 45 53 0
3 45 62 0
1 45 78 0
8 45 113 0
2 45 117 0
2 45 118 0
7 46 -118 0
4 46 -102 0
2 46 -100 0
3 46 -95 0
4 46 -87 0
5 46 -86 0
6 46 75 0
10 47 -116 0
8 47 -114 0
6 47 -101 0
6 47 -72 0
6 47 -51 0
9 47 78 0
5 48 -66 0
3 48 49 0
9 48 56 0
4 48 67 0
6 48 102 0
10 49 -79 0
10 49 -78 0
2 49 -62 0
9 49 -54 0
1 49 51 0
2 49 79 0
9 50 -97 0
7 50 -73 0
4 50 -69 0
9 50 -65 0
4 50 -63 0
5 50 109 0
1 51 59 0
2 51 64 0
8 51 108 0
2 52 -88 0
4 52 -72 0
2 52 73 0
6 52 80 0
8 52 87 0
1 52 94 0
4 52 105 0
5 52 109 0
6 53 -100 0
9 53 -70 0
4 53 75 0
1 53 116 0
2 54 -106 0
3 54 -103 0
4 54 -78 0
7 54 -66 0
3 54 -63 0
4 54 -60 0
8 54 60 0
2 54 66 0
4 54 67 0
9 54 76 0
1 54 116 0
10 55 -116 0
3 55 -97 0
9 55 -70 0
4 55 78 0
6 55 108 0
9 55 117 0
5 56 -113 0
4 56 -110 0
2 56 -102 0
7 56 -100 0
4 56 -86 0
7 56 -78 0
6 56 -73 0
5 56 -61 0
1 56 71 0
9 56 79 0
10 56 106 0
9 57 -101 0
3 57 -95 0
1 57 -78 0
10 57 -59 0
5 57 62 0
4 57 65 0
7 57 77 0
7 57 91 0
8 57 101 0
5 58 -67 0
8 58 -60 0
2 58 61 0
4 58 69 0
8 58 95 0
1 59 -107 0
6 59 -101 0
7 59 -87 0
4 59 -84 0
2 59 -62 0
7 59 76 0
8 59 83 0
5 59 87 0
7 60 -113 0
5 60 -83 0
8 60 74 0
4 60 115 0
10 61 -99 0
3 61 -98 0
5 61 -69 0
9 61 -67 0
3 61 75 0
4 62 -100 0
2 62 -84 0
3 62 -76 0
3 62 -70 0
6 62 -69 0
7 62 99 0
9 63 -87 0
3 63 -83 0
4 63 84 0
4 63 93 0
1 63 101 0
5 63 112 0
7 63 118 0
8 64 -120 0
5 64 -107 0
3 64 -99 0
5 64 -93 0
9 64 -82 0
4 64 -74 0
2 64 97 0
7 64 112 0
7 65 -116 0
8 65 -106 0
2 65 -101 0
5 65 -100 0
3 65 -99 0
2 65 -82 0
7 65 66 0
6 65 76 0
10 65 83 0
9 65 96 0
9 65 99 0
2 66 -86 0
2 66 -83 0
2 66 -73 0
7 66 112 0
8 66 113 0
2 67 -102 0
9 67 -100 0
2 67 -78 0
5 67 -74 0
9 67 86 0
6 67 88 0
2 67 94 0
8 67 95 0
1 68 -97 0
4 68 -85 0
3 68 69 0
9 68 70 0
7 68 77 0
4 68 81 0
6 68 87 0
4 69 -116 0
3 69 -111 0
7 69 -109 0
9 69 -76 0
4 69 83 0
8 69 118 0
6 70 -85 0
10 70 -78 0
7 70 -77 0
5 70 -72 0
9 70 88 0
8 70 110 0
7 70 117 0
1 70 120 0
5 71 -88 0
5 71 100 0
2 72 -86 0
5 72 96 0
6 72 101 0
6 72 102 0
4 73 -88 0
2 73 93 0
7 74 -81 0
2 74 -77 0
2 75 -119 0
1 75 -112 0
4 75 -111 0
1 75 -98 0
7 75 76 0
8 75 79 0
6 75 81 0
1 75 89 0
9 75 112 0
3 76 -114 0
9 76 -98 0
4 76 -94 0
1 76 92 0
5 76 97 0
3 76 108 0
8 77 -87 0
9 77 -82 0
2 77 90 0
6 77 107 0
6 77 110 0
2 77 117 0
1 78 -111 0
9 78 -102 0
3 78 -79 0
5 78 80 0
5 79 -113 0
8 79 -91 0
8 79 110 0
6 80 -105 0
5 80 -85 0
9 80 83 0
7 80 86 0
6 80 89 0
3 80 97 0
8 80 99 0
3 80 105 0
10 80 111 0
4 80 112 0
3 81 -96 0
9 81 87 0
6 81 95 0
2 81 103 0
3 82 -100 0
7 82 -90 0
6 82 85 0
5 82 110 0
4 83 -111 0
5 83 -102 0
6 83 -84 0
9 83 120 0
10 84 88 0
8 85 90 0
9 86 -110 0
9 86 87 0
10 86 106 0
4 86 114 0
4 87 -93 0
8 87 114 0
2 88 -93 0
9 88 -89 0
3 89 91 0
1 90 -116 0
6 90 -93 0
8 90 102 0
3 91 98 0
4 91 101 0
1 92 -117 0
3 92 -106 0
7 92 -100 0
3 92 105 0
2 93 -110 0
3 93 -99 0
4 93 98 0
3 93 107 0
9 93 109 0
9 94 -116 0
7 94 -101 0
3 94 100 0
4 95 -114 0
4 95 -108 0
2 95 117 0
4 96 -116 0
1 97 -116 0
1 97 -105 0
3 98 -119 0
1 98 -117 0
4 98 120 0
6 99 -110 0
8 99 107 0
5 100 -114 0
5 100 -107 0
2 100 -101 0
6 102 -117 0
2 102 -103 0
9 103 -113 0
8 105 -118 0
5 105 106 0
9 106 -118 0
10 107 109 0
2 107 112 0
2 107 118 0
1 107 119 0
4 107 120 0
5 110 -113 0
4 110 112 0
3 110 116 0
4 111 -114 0
1 111 114 0
5 111 119 0
7 112 -119 0
4 112 -115 0
7 115 -119 0
1 115 116 0
5 118 120 0
